57
26
0 26 28 29 31 33 34 36 37 38 39 40 42 43 45 48 50 51 53 55 56
1 26 28 29 31 33 34 36 37 39 40 41 42 45 48 51 52 53 54
2 26 31 33 36 40 41 42 43 44 46 48 49 50 51 56
3 26 29 30 31 33 39 40 42 43 45 46 51 53 54 56
4 28 31 33 37 39 40 42 45 47 48 50 51 53 55
5 31 32 33 36 39 40 42 45 46 48 50 53 56
6 26 28 30 31 33 36 39 40 41 43 44 45 48 49 50
7 28 31 32 33 36 39 42 43 44 45 47 50 51 53 56
8 28 29 31 32 33 35 36 37 40 44 47 49 50 51 53 54 55 56
9 26 28 29 31 34 36 38 39 42 43 45 48 49 50 51 53 54 56
10 26 28 29 33 35 38 40 42 44 47 50 53 55 56
11 26 28 33 34 37 40 43 48 49 50 53 54 55 56
12 29 33 38 42 43 44 45 46 47 50 56
13 26 36 43 44 45 47 48 53 54 56
14 26 28 29 31 33 36 37 47 48 51 53 56
15 31 32 36 39 40 43 45 47 48 51
16 32 36 38 40 42 47 48 53
17 28 34 40 42 43 55
18 28 29 31 40 44 45 51
19 33 37 44 55
20 26 31 35 41 45 46 49 50 54
21 30 33 34 35 38 40 53
22 32 34 40 42 48 50
23 27 28 37 49
24 34
25
